language Essence 1.3

letting codeWordLength be 9
letting dist be
        function((1, 1) --> 0, (1, 2) --> 5, (1, 3) --> 3, (1, 4) --> 1, (1, 5) --> 3, (1, 6) --> 2, (1, 7) --> 5,
                 (1, 8) --> 4, (1, 9) --> 0, (1, 10) --> 5, (1, 11) --> 2, (1, 12) --> 0, (1, 13) --> 5, (1, 14) --> 3,
                 (1, 15) --> 0, (1, 16) --> 5, (2, 1) --> 5, (2, 2) --> 0, (2, 3) --> 1, (2, 4) --> 3, (2, 5) --> 3,
                 (2, 6) --> 5, (2, 7) --> 1, (2, 8) --> 2, (2, 9) --> 4, (2, 10) --> 5, (2, 11) --> 2, (2, 12) --> 2,
                 (2, 13) --> 5, (2, 14) --> 5, (2, 15) --> 6, (2, 16) --> 6, (3, 1) --> 3, (3, 2) --> 1, (3, 3) --> 0,
                 (3, 4) --> 5, (3, 5) --> 3, (3, 6) --> 5, (3, 7) --> 5, (3, 8) --> 4, (3, 9) --> 2, (3, 10) --> 3,
                 (3, 11) --> 2, (3, 12) --> 6, (3, 13) --> 4, (3, 14) --> 3, (3, 15) --> 2, (3, 16) --> 1, (4, 1) --> 1,
                 (4, 2) --> 3, (4, 3) --> 5, (4, 4) --> 0, (4, 5) --> 0, (4, 6) --> 0, (4, 7) --> 5, (4, 8) --> 5,
                 (4, 9) --> 0, (4, 10) --> 4, (4, 11) --> 1, (4, 12) --> 5, (4, 13) --> 2, (4, 14) --> 2, (4, 15) --> 2,
                 (4, 16) --> 3, (5, 1) --> 3, (5, 2) --> 3, (5, 3) --> 3, (5, 4) --> 0, (5, 5) --> 0, (5, 6) --> 1,
                 (5, 7) --> 4, (5, 8) --> 3, (5, 9) --> 0, (5, 10) --> 1, (5, 11) --> 6, (5, 12) --> 0, (5, 13) --> 1,
                 (5, 14) --> 0, (5, 15) --> 3, (5, 16) --> 0, (6, 1) --> 2, (6, 2) --> 5, (6, 3) --> 5, (6, 4) --> 0,
                 (6, 5) --> 1, (6, 6) --> 0, (6, 7) --> 4, (6, 8) --> 6, (6, 9) --> 2, (6, 10) --> 3, (6, 11) --> 1,
                 (6, 12) --> 1, (6, 13) --> 2, (6, 14) --> 6, (6, 15) --> 2, (6, 16) --> 6, (7, 1) --> 5, (7, 2) --> 1,
                 (7, 3) --> 5, (7, 4) --> 5, (7, 5) --> 4, (7, 6) --> 4, (7, 7) --> 0, (7, 8) --> 0, (7, 9) --> 2,
                 (7, 10) --> 3, (7, 11) --> 3, (7, 12) --> 4, (7, 13) --> 6, (7, 14) --> 3, (7, 15) --> 4,
                 (7, 16) --> 1, (8, 1) --> 4, (8, 2) --> 2, (8, 3) --> 4, (8, 4) --> 5, (8, 5) --> 3, (8, 6) --> 6,
                 (8, 7) --> 0, (8, 8) --> 0, (8, 9) --> 5, (8, 10) --> 0, (8, 11) --> 2, (8, 12) --> 6, (8, 13) --> 5,
                 (8, 14) --> 5, (8, 15) --> 4, (8, 16) --> 3, (9, 1) --> 0, (9, 2) --> 4, (9, 3) --> 2, (9, 4) --> 0,
                 (9, 5) --> 0, (9, 6) --> 2, (9, 7) --> 2, (9, 8) --> 5, (9, 9) --> 0, (9, 10) --> 5, (9, 11) --> 3,
                 (9, 12) --> 1, (9, 13) --> 2, (9, 14) --> 3, (9, 15) --> 2, (9, 16) --> 3, (10, 1) --> 5,
                 (10, 2) --> 5, (10, 3) --> 3, (10, 4) --> 4, (10, 5) --> 1, (10, 6) --> 3, (10, 7) --> 3,
                 (10, 8) --> 0, (10, 9) --> 5, (10, 10) --> 0, (10, 11) --> 0, (10, 12) --> 3, (10, 13) --> 3,
                 (10, 14) --> 4, (10, 15) --> 2, (10, 16) --> 6, (11, 1) --> 2, (11, 2) --> 2, (11, 3) --> 2,
                 (11, 4) --> 1, (11, 5) --> 6, (11, 6) --> 1, (11, 7) --> 3, (11, 8) --> 2, (11, 9) --> 3,
                 (11, 10) --> 0, (11, 11) --> 0, (11, 12) --> 6, (11, 13) --> 5, (11, 14) --> 1, (11, 15) --> 0,
                 (11, 16) --> 4, (12, 1) --> 0, (12, 2) --> 2, (12, 3) --> 6, (12, 4) --> 5, (12, 5) --> 0,
                 (12, 6) --> 1, (12, 7) --> 4, (12, 8) --> 6, (12, 9) --> 1, (12, 10) --> 3, (12, 11) --> 6,
                 (12, 12) --> 0, (12, 13) --> 4, (12, 14) --> 3, (12, 15) --> 0, (12, 16) --> 1, (13, 1) --> 5,
                 (13, 2) --> 5, (13, 3) --> 4, (13, 4) --> 2, (13, 5) --> 1, (13, 6) --> 2, (13, 7) --> 6,
                 (13, 8) --> 5, (13, 9) --> 2, (13, 10) --> 3, (13, 11) --> 5, (13, 12) --> 4, (13, 13) --> 0,
                 (13, 14) --> 5, (13, 15) --> 5, (13, 16) --> 2, (14, 1) --> 3, (14, 2) --> 5, (14, 3) --> 3,
                 (14, 4) --> 2, (14, 5) --> 0, (14, 6) --> 6, (14, 7) --> 3, (14, 8) --> 5, (14, 9) --> 3,
                 (14, 10) --> 4, (14, 11) --> 1, (14, 12) --> 3, (14, 13) --> 5, (14, 14) --> 0, (14, 15) --> 1,
                 (14, 16) --> 2, (15, 1) --> 0, (15, 2) --> 6, (15, 3) --> 2, (15, 4) --> 2, (15, 5) --> 3,
                 (15, 6) --> 2, (15, 7) --> 4, (15, 8) --> 4, (15, 9) --> 2, (15, 10) --> 2, (15, 11) --> 0,
                 (15, 12) --> 0, (15, 13) --> 5, (15, 14) --> 1, (15, 15) --> 0, (15, 16) --> 1, (16, 1) --> 5,
                 (16, 2) --> 6, (16, 3) --> 1, (16, 4) --> 3, (16, 5) --> 0, (16, 6) --> 6, (16, 7) --> 1,
                 (16, 8) --> 3, (16, 9) --> 3, (16, 10) --> 6, (16, 11) --> 4, (16, 12) --> 1, (16, 13) --> 2,
                 (16, 14) --> 2, (16, 15) --> 1, (16, 16) --> 0)
letting maxDist be 16
letting minDist be 1
letting nbCharacter be 16
letting numOfCodeWords be 46
